CUSTOMERS : 10
VEHICLES : 5
0 254 53 236 323 431 255 141 257 281 14 
308 0 128 113 368 495 182 197 392 371 277 
296 437 0 1 476 144 99 82 124 7 79 
216 70 427 0 378 439 417 286 222 499 376 
213 305 497 242 0 87 315 211 391 480 416 
414 24 266 170 320 0 311 246 497 248 386 
464 190 251 83 327 148 0 392 387 235 189 
109 462 153 48 249 187 283 0 132 420 307 
176 275 12 80 0 158 50 9 0 289 456 
288 255 406 16 217 10 120 461 408 0 362 
26 490 340 185 54 151 280 86 459 422 0 
